files/upTests/__essence_catalog/ramsey/0001.eprime
language ESSENCE' 1.0

given n: int(1..20)
given colours: int(1..10)
find graph_RelationAsSet_SetExplicit_tuple1:
        matrix indexed by [int(1..n * (n - 1) / 2)] of int(1..colours)
find graph_RelationAsSet_SetExplicit_tuple2:
        matrix indexed by [int(1..n * (n - 1) / 2)] of int(1..n)
find graph_RelationAsSet_SetExplicit_tuple3:
        matrix indexed by [int(1..n * (n - 1) / 2)] of int(1..n)
such that
    forAll v__0 : int(1..n * (n - 1) / 2 - 1)
        . graph_RelationAsSet_SetExplicit_tuple1[v__0]
          <
          graph_RelationAsSet_SetExplicit_tuple1[v__0 + 1]
          \/
          graph_RelationAsSet_SetExplicit_tuple1[v__0]
          =
          graph_RelationAsSet_SetExplicit_tuple1[v__0 + 1]
          /\
          (graph_RelationAsSet_SetExplicit_tuple2[v__0]
           <
           graph_RelationAsSet_SetExplicit_tuple2[v__0 + 1]
           \/
           graph_RelationAsSet_SetExplicit_tuple2[v__0]
           =
           graph_RelationAsSet_SetExplicit_tuple2[v__0 + 1]
           /\
           graph_RelationAsSet_SetExplicit_tuple3[v__0]
           <
           graph_RelationAsSet_SetExplicit_tuple3[v__0 + 1]),
    forAll v__0 : int(1..n)
        . (sum v__1 : int(1..n * (n - 1) / 2)
               . (graph_RelationAsSet_SetExplicit_tuple2[v__1] = v__0) * 1)
          +
          (sum v__1 : int(1..n * (n - 1) / 2)
               . (graph_RelationAsSet_SetExplicit_tuple3[v__1] = v__0) * 1)
          =
          n - 1
          /\
          (sum v__1 : int(1..n * (n - 1) / 2)
               . (graph_RelationAsSet_SetExplicit_tuple2[v__1] = v__0
                  /\
                  graph_RelationAsSet_SetExplicit_tuple3[v__1] = v__0)
                 *
                 1)
          =
          0,
    forAll v__0 : int(1..n)
        . (forAll v__1 : int(1..n * (n - 1) / 2)
               . graph_RelationAsSet_SetExplicit_tuple2[v__1] = v__0
                 ->
                 (forAll v__2 : int(1..n * (n - 1) / 2)
                      . graph_RelationAsSet_SetExplicit_tuple3[v__2]
                        !=
                        graph_RelationAsSet_SetExplicit_tuple3[v__1]
                        /\
                        (graph_RelationAsSet_SetExplicit_tuple1[v__2]
                         =
                         graph_RelationAsSet_SetExplicit_tuple1[v__1]
                         /\
                         graph_RelationAsSet_SetExplicit_tuple2[v__2] = v__0)
                        ->
                        !(exists v__3 : int(1..n * (n - 1) / 2)
                              . graph_RelationAsSet_SetExplicit_tuple1[v__3]
                                =
                                graph_RelationAsSet_SetExplicit_tuple1[v__1]
                                /\
                                (graph_RelationAsSet_SetExplicit_tuple2[v__3]
                                 =
                                 graph_RelationAsSet_SetExplicit_tuple3[v__2]
                                 /\
                                 graph_RelationAsSet_SetExplicit_tuple3[v__3]
                                 =
                                 graph_RelationAsSet_SetExplicit_tuple3[v__1]))
                        /\
                        !(exists v__3 : int(1..n * (n - 1) / 2)
                              . graph_RelationAsSet_SetExplicit_tuple1[v__3]
                                =
                                graph_RelationAsSet_SetExplicit_tuple1[v__1]
                                /\
                                (graph_RelationAsSet_SetExplicit_tuple2[v__3]
                                 =
                                 graph_RelationAsSet_SetExplicit_tuple3[v__1]
                                 /\
                                 graph_RelationAsSet_SetExplicit_tuple3[v__3]
                                 =
                                 graph_RelationAsSet_SetExplicit_tuple3[v__2])))
                 /\
                 (forAll v__2 : int(1..n * (n - 1) / 2)
                      . graph_RelationAsSet_SetExplicit_tuple2[v__2]
                        !=
                        graph_RelationAsSet_SetExplicit_tuple3[v__1]
                        /\
                        (graph_RelationAsSet_SetExplicit_tuple1[v__2]
                         =
                         graph_RelationAsSet_SetExplicit_tuple1[v__1]
                         /\
                         graph_RelationAsSet_SetExplicit_tuple3[v__2] = v__0)
                        ->
                        !(exists v__3 : int(1..n * (n - 1) / 2)
                              . graph_RelationAsSet_SetExplicit_tuple1[v__3]
                                =
                                graph_RelationAsSet_SetExplicit_tuple1[v__1]
                                /\
                                (graph_RelationAsSet_SetExplicit_tuple2[v__3]
                                 =
                                 graph_RelationAsSet_SetExplicit_tuple2[v__2]
                                 /\
                                 graph_RelationAsSet_SetExplicit_tuple3[v__3]
                                 =
                                 graph_RelationAsSet_SetExplicit_tuple3[v__1]))
                        /\
                        !(exists v__3 : int(1..n * (n - 1) / 2)
                              . graph_RelationAsSet_SetExplicit_tuple1[v__3]
                                =
                                graph_RelationAsSet_SetExplicit_tuple1[v__1]
                                /\
                                (graph_RelationAsSet_SetExplicit_tuple2[v__3]
                                 =
                                 graph_RelationAsSet_SetExplicit_tuple3[v__1]
                                 /\
                                 graph_RelationAsSet_SetExplicit_tuple3[v__3]
                                 =
                                 graph_RelationAsSet_SetExplicit_tuple2[v__2])))),
    forAll v__0 : int(1..n)
        . (forAll v__1 : int(1..n * (n - 1) / 2)
               . graph_RelationAsSet_SetExplicit_tuple3[v__1] = v__0
                 ->
                 (forAll v__2 : int(1..n * (n - 1) / 2)
                      . graph_RelationAsSet_SetExplicit_tuple3[v__2]
                        !=
                        graph_RelationAsSet_SetExplicit_tuple2[v__1]
                        /\
                        (graph_RelationAsSet_SetExplicit_tuple1[v__2]
                         =
                         graph_RelationAsSet_SetExplicit_tuple1[v__1]
                         /\
                         graph_RelationAsSet_SetExplicit_tuple2[v__2] = v__0)
                        ->
                        !(exists v__3 : int(1..n * (n - 1) / 2)
                              . graph_RelationAsSet_SetExplicit_tuple1[v__3]
                                =
                                graph_RelationAsSet_SetExplicit_tuple1[v__1]
                                /\
                                (graph_RelationAsSet_SetExplicit_tuple2[v__3]
                                 =
                                 graph_RelationAsSet_SetExplicit_tuple3[v__2]
                                 /\
                                 graph_RelationAsSet_SetExplicit_tuple3[v__3]
                                 =
                                 graph_RelationAsSet_SetExplicit_tuple2[v__1]))
                        /\
                        !(exists v__3 : int(1..n * (n - 1) / 2)
                              . graph_RelationAsSet_SetExplicit_tuple1[v__3]
                                =
                                graph_RelationAsSet_SetExplicit_tuple1[v__1]
                                /\
                                (graph_RelationAsSet_SetExplicit_tuple2[v__3]
                                 =
                                 graph_RelationAsSet_SetExplicit_tuple2[v__1]
                                 /\
                                 graph_RelationAsSet_SetExplicit_tuple3[v__3]
                                 =
                                 graph_RelationAsSet_SetExplicit_tuple3[v__2])))
                 /\
                 (forAll v__2 : int(1..n * (n - 1) / 2)
                      . graph_RelationAsSet_SetExplicit_tuple2[v__2]
                        !=
                        graph_RelationAsSet_SetExplicit_tuple2[v__1]
                        /\
                        (graph_RelationAsSet_SetExplicit_tuple1[v__2]
                         =
                         graph_RelationAsSet_SetExplicit_tuple1[v__1]
                         /\
                         graph_RelationAsSet_SetExplicit_tuple3[v__2] = v__0)
                        ->
                        !(exists v__3 : int(1..n * (n - 1) / 2)
                              . graph_RelationAsSet_SetExplicit_tuple1[v__3]
                                =
                                graph_RelationAsSet_SetExplicit_tuple1[v__1]
                                /\
                                (graph_RelationAsSet_SetExplicit_tuple2[v__3]
                                 =
                                 graph_RelationAsSet_SetExplicit_tuple2[v__2]
                                 /\
                                 graph_RelationAsSet_SetExplicit_tuple3[v__3]
                                 =
                                 graph_RelationAsSet_SetExplicit_tuple2[v__1]))
                        /\
                        !(exists v__3 : int(1..n * (n - 1) / 2)
                              . graph_RelationAsSet_SetExplicit_tuple1[v__3]
                                =
                                graph_RelationAsSet_SetExplicit_tuple1[v__1]
                                /\
                                (graph_RelationAsSet_SetExplicit_tuple2[v__3]
                                 =
                                 graph_RelationAsSet_SetExplicit_tuple2[v__1]
                                 /\
                                 graph_RelationAsSet_SetExplicit_tuple3[v__3]
                                 =
                                 graph_RelationAsSet_SetExplicit_tuple2[v__2])))),
    forAll v__0 : int(1..n)
        . (forAll v__1 : int(1..n)
               . v__0 != v__1
                 ->
                 (sum v__2 : int(1..n * (n - 1) / 2)
                      . (graph_RelationAsSet_SetExplicit_tuple2[v__2] = v__0
                         /\
                         graph_RelationAsSet_SetExplicit_tuple3[v__2] = v__1)
                        *
                        1)
                 +
                 (sum v__2 : int(1..n * (n - 1) / 2)
                      . (graph_RelationAsSet_SetExplicit_tuple2[v__2] = v__1
                         /\
                         graph_RelationAsSet_SetExplicit_tuple3[v__2] = v__0)
                        *
                        1)
                 =
                 1)
