files/upTests/__essence_catalog/ramsey/0001.eprime.solution
language ESSENCE' 1.0
$ minion Nodes: 78051
$ minion TotalTime: 128.104
$ minion TimeOut: 0
$ Savile Row TotalTime: 142.649
letting graph_RelationAsSet_SetExplicit_tuple1 be [1, 1, 1, 1, 1, 2, 2, 2, 2, 2;int(1..10)]
letting graph_RelationAsSet_SetExplicit_tuple2 be [1, 1, 2, 2, 3, 1, 1, 2, 3, 4;int(1..10)]
letting graph_RelationAsSet_SetExplicit_tuple3 be [3, 4, 4, 5, 5, 2, 5, 3, 4, 5;int(1..10)]
